/* 720 */

/* Objective function */
min: +C3;

/* Constraints */
+1.5 C1 +2.4 C2 -C3 <= -0.09;
+3.5 C1 +2.67 C2 -C3 <= -0.09;
-4166666666.7 C2 -C3 <= -0.09;
-6666666670.57 C1 +2.4 C2 -C3 <= -0.09;
R5: -C3 <= -0.09;
R6: -C3 <= -0.09;
R7: -C3 <= -0.09;
R8: -C3 <= -0.09;
R9: -C3 <= -0.09;
R10: -C3 <= -0.09;
R11: -C3 <= -0.09;
R12: -C3 <= -0.09;
R13: -C3 <= -0.09;
R14: -C3 <= -0.09;
R15: -C3 <= -0.09;
R16: -C3 <= -0.09;
R17: -C3 <= -0.09;
R18: -C3 <= -0.09;
R19: -C3 <= -0.09;
R20: -C3 <= -0.09;
R21: -C3 <= -0.09;
R22: -C3 <= -0.09;
R23: -C3 <= -0.09;
R24: -C3 <= -0.09;
R25: -C3 <= -0.09;
R26: -C3 <= -0.09;
R27: -C3 <= -0.09;
R28: -C3 <= -0.09;
R29: -C3 <= -0.09;
R30: -C3 <= -0.09;
R31: -C3 <= -0.09;
R32: -C3 <= -0.09;
R33: -C3 <= -0.09;
R34: -C3 <= -0.09;
R35: -C3 <= -0.09;
R36: -C3 <= -0.09;
R37: -C3 <= -0.09;
R38: -C3 <= -0.09;
R39: -C3 <= -0.09;
R40: -C3 <= -0.09;
R41: -C3 <= -0.09;
R42: -C3 <= -0.09;
R43: -C3 <= -0.09;
R44: -C3 <= -0.09;
R45: -C3 <= -0.09;
R46: -C3 <= -0.09;
R47: -C3 <= -0.09;
R48: -C3 <= -0.09;
R49: -C3 <= -0.09;
R50: -C3 <= -0.09;
R51: -C3 <= -0.09;
R52: -C3 <= -0.09;
R53: -C3 <= -0.09;
R54: -C3 <= -0.09;
R55: -C3 <= -0.09;
R56: -C3 <= -0.09;
R57: -C3 <= -0.09;
R58: -C3 <= -0.09;
R59: -C3 <= -0.09;
R60: -C3 <= -0.09;
R61: -C3 <= -0.09;
R62: -C3 <= -0.09;
R63: -C3 <= -0.09;
R64: -C3 <= -0.09;
R65: -C3 <= -0.09;
R66: -C3 <= -0.09;
R67: -C3 <= -0.09;
R68: -C3 <= -0.09;
R69: -C3 <= -0.09;
R70: -C3 <= -0.09;
R71: -C3 <= -0.09;
R72: -C3 <= -0.09;
R73: -C3 <= -0.09;
R74: -C3 <= -0.09;
R75: -C3 <= -0.09;
R76: -C3 <= -0.09;
R77: -C3 <= -0.09;
R78: -C3 <= -0.09;
R79: -C3 <= -0.09;
R80: -C3 <= -0.09;
R81: -C3 <= -0.09;
R82: -C3 <= -0.09;
R83: -C3 <= -0.09;
R84: -C3 <= -0.09;
R85: -C3 <= -0.09;
R86: -C3 <= -0.09;
R87: -C3 <= -0.09;
R88: -C3 <= -0.09;
R89: -C3 <= -0.09;
R90: -C3 <= -0.09;
R91: -C3 <= -0.09;
R92: -C3 <= -0.09;
R93: -C3 <= -0.09;
R94: -C3 <= -0.09;
R95: -C3 <= -0.09;
R96: -C3 <= -0.09;
R97: -C3 <= -0.09;
R98: -C3 <= -0.09;
R99: -C3 <= -0.09;
R100: -C3 <= -0.09;
R101: -C3 <= -0.09;
R102: -C3 <= -0.09;
R103: -C3 <= -0.09;
R104: -C3 <= -0.09;
R105: -C3 <= -0.09;
R106: -C3 <= -0.09;
R107: -C3 <= -0.09;
R108: -C3 <= -0.09;
R109: -C3 <= -0.09;
R110: -C3 <= -0.09;
R111: -C3 <= -0.09;
R112: -C3 <= -0.09;
R113: -C3 <= -0.09;
R114: -C3 <= -0.09;
R115: -C3 <= -0.09;
R116: -C3 <= -0.09;
R117: -C3 <= -0.09;
R118: -C3 <= -0.09;
R119: -C3 <= -0.09;
R120: -C3 <= -0.09;
R121: -C3 <= -0.09;
R122: -C3 <= -0.09;
R123: -C3 <= -0.09;
R124: -C3 <= -0.09;
R125: -C3 <= -0.09;
R126: -C3 <= -0.09;
R127: -C3 <= -0.09;
R128: -C3 <= -0.09;
R129: -C3 <= -0.09;
R130: -C3 <= -0.09;
R131: -C3 <= -0.09;
R132: -C3 <= -0.09;
R133: -C3 <= -0.09;
R134: -C3 <= -0.09;
R135: -C3 <= -0.09;
R136: -C3 <= -0.09;
R137: -C3 <= -0.09;
R138: -C3 <= -0.09;
R139: -C3 <= -0.09;
R140: -C3 <= -0.09;
R141: -C3 <= -0.09;
R142: -C3 <= -0.09;
R143: -C3 <= -0.09;
R144: -C3 <= -0.09;
R145: -C3 <= -0.09;
R146: -C3 <= -0.09;
R147: -C3 <= -0.09;
R148: -C3 <= -0.09;
R149: -C3 <= -0.09;
R150: -C3 <= -0.09;
R151: -C3 <= -0.09;
R152: -C3 <= -0.09;
R153: -C3 <= -0.09;
R154: -C3 <= -0.09;
R155: -C3 <= -0.09;
R156: -C3 <= -0.09;
R157: -C3 <= -0.09;
R158: -C3 <= -0.09;
R159: -C3 <= -0.09;
R160: -C3 <= -0.09;
R161: -C3 <= -0.09;
R162: -C3 <= -0.09;
R163: -C3 <= -0.09;
R164: -C3 <= -0.09;
R165: -C3 <= -0.09;
R166: -C3 <= -0.09;
R167: -C3 <= -0.09;
R168: -C3 <= -0.09;
R169: -C3 <= -0.09;
R170: -C3 <= -0.09;
R171: -C3 <= -0.09;
R172: -C3 <= -0.09;
R173: -C3 <= -0.09;
R174: -C3 <= -0.09;
R175: -C3 <= -0.09;
R176: -C3 <= -0.09;
R177: -C3 <= -0.09;
R178: -C3 <= -0.09;
R179: -C3 <= -0.09;
R180: -C3 <= -0.09;
R181: -C3 <= -0.09;
R182: -C3 <= -0.09;
R183: -C3 <= -0.09;
R184: -C3 <= -0.09;
R185: -C3 <= -0.09;
R186: -C3 <= -0.09;
R187: -C3 <= -0.09;
R188: -C3 <= -0.09;
R189: -C3 <= -0.09;
R190: -C3 <= -0.09;
R191: -C3 <= -0.09;
R192: -C3 <= -0.09;
R193: -C3 <= -0.09;
R194: -C3 <= -0.09;
R195: -C3 <= -0.09;
R196: -C3 <= -0.09;
R197: -C3 <= -0.09;
R198: -C3 <= -0.09;
R199: -C3 <= -0.09;
R200: -C3 <= -0.09;
R201: -C3 <= -0.09;
R202: -C3 <= -0.09;
R203: -C3 <= -0.09;
R204: -C3 <= -0.09;
R205: -C3 <= -0.09;
R206: -C3 <= -0.09;
R207: -C3 <= -0.09;
R208: -C3 <= -0.09;
R209: -C3 <= -0.09;
R210: -C3 <= -0.09;
R211: -C3 <= -0.09;
R212: -C3 <= -0.09;
R213: -C3 <= -0.09;
R214: -C3 <= -0.09;
R215: -C3 <= -0.09;
R216: -C3 <= -0.09;
R217: -C3 <= -0.09;
R218: -C3 <= -0.09;
R219: -C3 <= -0.09;
R220: -C3 <= -0.09;
R221: -C3 <= -0.09;
R222: -C3 <= -0.09;
R223: -C3 <= -0.09;
R224: -C3 <= -0.09;
R225: -C3 <= -0.09;
R226: -C3 <= -0.09;
R227: -C3 <= -0.09;
R228: -C3 <= -0.09;
R229: -C3 <= -0.09;
R230: -C3 <= -0.09;
R231: -C3 <= -0.09;
R232: -C3 <= -0.09;
R233: -C3 <= -0.09;
R234: -C3 <= -0.09;
R235: -C3 <= -0.09;
R236: -C3 <= -0.09;
R237: -C3 <= -0.09;
R238: -C3 <= -0.09;
R239: -C3 <= -0.09;
R240: -C3 <= -0.09;
R241: -C3 <= -0.09;
R242: -C3 <= -0.09;
R243: -C3 <= -0.09;
R244: -C3 <= -0.09;
R245: -C3 <= -0.09;
R246: -C3 <= -0.09;
R247: -C3 <= -0.09;
R248: -C3 <= -0.09;
R249: -C3 <= -0.09;
R250: -C3 <= -0.09;
R251: -C3 <= -0.09;
R252: -C3 <= -0.09;
R253: -C3 <= -0.09;
R254: -C3 <= -0.09;
R255: -C3 <= -0.09;
R256: -C3 <= -0.09;
R257: -C3 <= -0.09;
R258: -C3 <= -0.09;
R259: -C3 <= -0.09;
R260: -C3 <= -0.09;
R261: -C3 <= -0.09;
R262: -C3 <= -0.09;
R263: -C3 <= -0.09;
R264: -C3 <= -0.09;
R265: -C3 <= -0.09;
R266: -C3 <= -0.09;
R267: -C3 <= -0.09;
R268: -C3 <= -0.09;
R269: -C3 <= -0.09;
R270: -C3 <= -0.09;
R271: -C3 <= -0.09;
R272: -C3 <= -0.09;
R273: -C3 <= -0.09;
R274: -C3 <= -0.09;
R275: -C3 <= -0.09;
R276: -C3 <= -0.09;
R277: -C3 <= -0.09;
R278: -C3 <= -0.09;
R279: -C3 <= -0.09;
R280: -C3 <= -0.09;
R281: -C3 <= -0.09;
R282: -C3 <= -0.09;
R283: -C3 <= -0.09;
R284: -C3 <= -0.09;
R285: -C3 <= -0.09;
R286: -C3 <= -0.09;
R287: -C3 <= -0.09;
R288: -C3 <= -0.09;
R289: -C3 <= -0.09;
R290: -C3 <= -0.09;
R291: -C3 <= -0.09;
R292: -C3 <= -0.09;
R293: -C3 <= -0.09;
R294: -C3 <= -0.09;
R295: -C3 <= -0.09;
R296: -C3 <= -0.09;
R297: -C3 <= -0.09;
R298: -C3 <= -0.09;
R299: -C3 <= -0.09;
R300: -C3 <= -0.09;
R301: -C3 <= -0.09;
R302: -C3 <= -0.09;
R303: -C3 <= -0.09;
R304: -C3 <= -0.09;
R305: -C3 <= -0.09;
R306: -C3 <= -0.09;
R307: -C3 <= -0.09;
R308: -C3 <= -0.09;
R309: -C3 <= -0.09;
R310: -C3 <= -0.09;
R311: -C3 <= -0.09;
R312: -C3 <= -0.09;
R313: -C3 <= -0.09;
R314: -C3 <= -0.09;
R315: -C3 <= -0.09;
R316: -C3 <= -0.09;
R317: -C3 <= -0.09;
R318: -C3 <= -0.09;
R319: -C3 <= -0.09;
R320: -C3 <= -0.09;
R321: -C3 <= -0.09;
R322: -C3 <= -0.09;
R323: -C3 <= -0.09;
R324: -C3 <= -0.09;
R325: -C3 <= -0.09;
R326: -C3 <= -0.09;
R327: -C3 <= -0.09;
R328: -C3 <= -0.09;
R329: -C3 <= -0.09;
R330: -C3 <= -0.09;
R331: -C3 <= -0.09;
R332: -C3 <= -0.09;
R333: -C3 <= -0.09;
R334: -C3 <= -0.09;
R335: -C3 <= -0.09;
R336: -C3 <= -0.09;
R337: -C3 <= -0.09;
R338: -C3 <= -0.09;
R339: -C3 <= -0.09;
R340: -C3 <= -0.09;
R341: -C3 <= -0.09;
R342: -C3 <= -0.09;
R343: -C3 <= -0.09;
R344: -C3 <= -0.09;
R345: -C3 <= -0.09;
R346: -C3 <= -0.09;
R347: -C3 <= -0.09;
R348: -C3 <= -0.09;
R349: -C3 <= -0.09;
R350: -C3 <= -0.09;
R351: -C3 <= -0.09;
R352: -C3 <= -0.09;
R353: -C3 <= -0.09;
R354: -C3 <= -0.09;
R355: -C3 <= -0.09;
R356: -C3 <= -0.09;
R357: -C3 <= -0.09;
R358: -C3 <= -0.09;
R359: -C3 <= -0.09;
R360: -C3 <= -0.09;
R361: -C3 <= -0.09;
R362: -C3 <= -0.09;
R363: -C3 <= -0.09;
R364: -C3 <= -0.09;
R365: -C3 <= -0.09;
R366: -C3 <= -0.09;
R367: -C3 <= -0.09;
R368: -C3 <= -0.09;
R369: -C3 <= -0.09;
R370: -C3 <= -0.09;
R371: -C3 <= -0.09;
R372: -C3 <= -0.09;
R373: -C3 <= -0.09;
R374: -C3 <= -0.09;
R375: -C3 <= -0.09;
R376: -C3 <= -0.09;
R377: -C3 <= -0.09;
R378: -C3 <= -0.09;
R379: -C3 <= -0.09;
R380: -C3 <= -0.09;
R381: -C3 <= -0.09;
R382: -C3 <= -0.09;
R383: -C3 <= -0.09;
R384: -C3 <= -0.09;
R385: -C3 <= -0.09;
R386: -C3 <= -0.09;
R387: -C3 <= -0.09;
R388: -C3 <= -0.09;
R389: -C3 <= -0.09;
R390: -C3 <= -0.09;
R391: -C3 <= -0.09;
R392: -C3 <= -0.09;
R393: -C3 <= -0.09;
R394: -C3 <= -0.09;
R395: -C3 <= -0.09;
R396: -C3 <= -0.09;
R397: -C3 <= -0.09;
R398: -C3 <= -0.09;
R399: -C3 <= -0.09;
R400: -C3 <= -0.09;
R401: -C3 <= -0.09;
R402: -C3 <= -0.09;
R403: -C3 <= -0.09;
R404: -C3 <= -0.09;
R405: -C3 <= -0.09;
R406: -C3 <= -0.09;
R407: -C3 <= -0.09;
R408: -C3 <= -0.09;
R409: -C3 <= -0.09;
R410: -C3 <= -0.09;
R411: -C3 <= -0.09;
R412: -C3 <= -0.09;
R413: -C3 <= -0.09;
R414: -C3 <= -0.09;
R415: -C3 <= -0.09;
R416: -C3 <= -0.09;
R417: -C3 <= -0.09;
R418: -C3 <= -0.09;
R419: -C3 <= -0.09;
R420: -C3 <= -0.09;
R421: -C3 <= -0.09;
R422: -C3 <= -0.09;
R423: -C3 <= -0.09;
R424: -C3 <= -0.09;
R425: -C3 <= -0.09;
R426: -C3 <= -0.09;
R427: -C3 <= -0.09;
R428: -C3 <= -0.09;
R429: -C3 <= -0.09;
R430: -C3 <= -0.09;
R431: -C3 <= -0.09;
R432: -C3 <= -0.09;
R433: -C3 <= -0.09;
R434: -C3 <= -0.09;
R435: -C3 <= -0.09;
R436: -C3 <= -0.09;
R437: -C3 <= -0.09;
R438: -C3 <= -0.09;
R439: -C3 <= -0.09;
R440: -C3 <= -0.09;
R441: -C3 <= -0.09;
R442: -C3 <= -0.09;
R443: -C3 <= -0.09;
R444: -C3 <= -0.09;
R445: -C3 <= -0.09;
R446: -C3 <= -0.09;
R447: -C3 <= -0.09;
R448: -C3 <= -0.09;
R449: -C3 <= -0.09;
R450: -C3 <= -0.09;
R451: -C3 <= -0.09;
R452: -C3 <= -0.09;
R453: -C3 <= -0.09;
R454: -C3 <= -0.09;
R455: -C3 <= -0.09;
R456: -C3 <= -0.09;
R457: -C3 <= -0.09;
R458: -C3 <= -0.09;
R459: -C3 <= -0.09;
R460: -C3 <= -0.09;
R461: -C3 <= -0.09;
R462: -C3 <= -0.09;
R463: -C3 <= -0.09;
R464: -C3 <= -0.09;
R465: -C3 <= -0.09;
R466: -C3 <= -0.09;
R467: -C3 <= -0.09;
R468: -C3 <= -0.09;
R469: -C3 <= -0.09;
R470: -C3 <= -0.09;
R471: -C3 <= -0.09;
R472: -C3 <= -0.09;
R473: -C3 <= -0.09;
R474: -C3 <= -0.09;
R475: -C3 <= -0.09;
R476: -C3 <= -0.09;
R477: -C3 <= -0.09;
R478: -C3 <= -0.09;
R479: -C3 <= -0.09;
R480: -C3 <= -0.09;
R481: -C3 <= -0.09;
R482: -C3 <= -0.09;
R483: -C3 <= -0.09;
R484: -C3 <= -0.09;
R485: -C3 <= -0.09;
R486: -C3 <= -0.09;
R487: -C3 <= -0.09;
R488: -C3 <= -0.09;
R489: -C3 <= -0.09;
R490: -C3 <= -0.09;
R491: -C3 <= -0.09;
R492: -C3 <= -0.09;
R493: -C3 <= -0.09;
R494: -C3 <= -0.09;
R495: -C3 <= -0.09;
R496: -C3 <= -0.09;
R497: -C3 <= -0.09;
R498: -C3 <= -0.09;
R499: -C3 <= -0.09;
R500: -C3 <= -0.09;
R501: -C3 <= -0.09;
R502: -C3 <= -0.09;
R503: -C3 <= -0.09;
R504: -C3 <= -0.09;
R505: -C3 <= -0.09;
R506: -C3 <= -0.09;
R507: -C3 <= -0.09;
R508: -C3 <= -0.09;
R509: -C3 <= -0.09;
R510: -C3 <= -0.09;
R511: -C3 <= -0.09;
R512: -C3 <= -0.09;
R513: -C3 <= -0.09;
R514: -C3 <= -0.09;
R515: -C3 <= -0.09;
R516: -C3 <= -0.09;
R517: -C3 <= -0.09;
R518: -C3 <= -0.09;
R519: -C3 <= -0.09;
R520: -C3 <= -0.09;
R521: -C3 <= -0.09;
R522: -C3 <= -0.09;
R523: -C3 <= -0.09;
R524: -C3 <= -0.09;
R525: -C3 <= -0.09;
R526: -C3 <= -0.09;
R527: -C3 <= -0.09;
R528: -C3 <= -0.09;
R529: -C3 <= -0.09;
R530: -C3 <= -0.09;
R531: -C3 <= -0.09;
R532: -C3 <= -0.09;
R533: -C3 <= -0.09;
R534: -C3 <= -0.09;
R535: -C3 <= -0.09;
R536: -C3 <= -0.09;
R537: -C3 <= -0.09;
R538: -C3 <= -0.09;
R539: -C3 <= -0.09;
R540: -C3 <= -0.09;
R541: -C3 <= -0.09;
R542: -C3 <= -0.09;
R543: -C3 <= -0.09;
R544: -C3 <= -0.09;
R545: -C3 <= -0.09;
R546: -C3 <= -0.09;
R547: -C3 <= -0.09;
R548: -C3 <= -0.09;
R549: -C3 <= -0.09;
R550: -C3 <= -0.09;
R551: -C3 <= -0.09;
R552: -C3 <= -0.09;
R553: -C3 <= -0.09;
R554: -C3 <= -0.09;
R555: -C3 <= -0.09;
R556: -C3 <= -0.09;
R557: -C3 <= -0.09;
R558: -C3 <= -0.09;
R559: -C3 <= -0.09;
R560: -C3 <= -0.09;
R561: -C3 <= -0.09;
R562: -C3 <= -0.09;
R563: -C3 <= -0.09;
R564: -C3 <= -0.09;
R565: -C3 <= -0.09;
R566: -C3 <= -0.09;
R567: -C3 <= -0.09;
R568: -C3 <= -0.09;
R569: -C3 <= -0.09;
R570: -C3 <= -0.09;
R571: -C3 <= -0.09;
R572: -C3 <= -0.09;
R573: -C3 <= -0.09;
R574: -C3 <= -0.09;
R575: -C3 <= -0.09;
R576: -C3 <= -0.09;
R577: -C3 <= -0.09;
R578: -C3 <= -0.09;
R579: -C3 <= -0.09;
R580: -C3 <= -0.09;
R581: -C3 <= -0.09;
R582: -C3 <= -0.09;
R583: -C3 <= -0.09;
R584: -C3 <= -0.09;
R585: -C3 <= -0.09;
R586: -C3 <= -0.09;
R587: -C3 <= -0.09;
R588: -C3 <= -0.09;
R589: -C3 <= -0.09;
R590: -C3 <= -0.09;
R591: -C3 <= -0.09;
R592: -C3 <= -0.09;
R593: -C3 <= -0.09;
R594: -C3 <= -0.09;
R595: -C3 <= -0.09;
R596: -C3 <= -0.09;
R597: -C3 <= -0.09;
R598: -C3 <= -0.09;
R599: -C3 <= -0.09;
R600: -C3 <= -0.09;
R601: -C3 <= -0.09;
R602: -C3 <= -0.09;
R603: -C3 <= -0.09;
R604: -C3 <= -0.09;
R605: -C3 <= -0.09;
R606: -C3 <= -0.09;
R607: -C3 <= -0.09;
R608: -C3 <= -0.09;
R609: -C3 <= -0.09;
R610: -C3 <= -0.09;
R611: -C3 <= -0.09;
R612: -C3 <= -0.09;
R613: -C3 <= -0.09;
R614: -C3 <= -0.09;
R615: -C3 <= -0.09;
R616: -C3 <= -0.09;
R617: -C3 <= -0.09;
R618: -C3 <= -0.09;
R619: -C3 <= -0.09;
R620: -C3 <= -0.09;
R621: -C3 <= -0.09;
R622: -C3 <= -0.09;
R623: -C3 <= -0.09;
R624: -C3 <= -0.09;
R625: -C3 <= -0.09;
R626: -C3 <= -0.09;
R627: -C3 <= -0.09;
R628: -C3 <= -0.09;
R629: -C3 <= -0.09;
R630: -C3 <= -0.09;
R631: -C3 <= -0.09;
R632: -C3 <= -0.09;
R633: -C3 <= -0.09;
R634: -C3 <= -0.09;
R635: -C3 <= -0.09;
R636: -C3 <= -0.09;
R637: -C3 <= -0.09;
R638: -C3 <= -0.09;
R639: -C3 <= -0.09;
R640: -C3 <= -0.09;
R641: -C3 <= -0.09;
R642: -C3 <= -0.09;
R643: -C3 <= -0.09;
R644: -C3 <= -0.09;
R645: -C3 <= -0.09;
R646: -C3 <= -0.09;
R647: -C3 <= -0.09;
R648: -C3 <= -0.09;
R649: -C3 <= -0.09;
R650: -C3 <= -0.09;
R651: -C3 <= -0.09;
R652: -C3 <= -0.09;
R653: -C3 <= -0.09;
R654: -C3 <= -0.09;
R655: -C3 <= -0.09;
R656: -C3 <= -0.09;
R657: -C3 <= -0.09;
R658: -C3 <= -0.09;
R659: -C3 <= -0.09;
R660: -C3 <= -0.09;
R661: -C3 <= -0.09;
R662: -C3 <= -0.09;
R663: -C3 <= -0.09;
R664: -C3 <= -0.09;
R665: -C3 <= -0.09;
R666: -C3 <= -0.09;
R667: -C3 <= -0.09;
R668: -C3 <= -0.09;
R669: -C3 <= -0.09;
R670: -C3 <= -0.09;
R671: -C3 <= -0.09;
R672: -C3 <= -0.09;
R673: -C3 <= -0.09;
R674: -C3 <= -0.09;
R675: -C3 <= -0.09;
R676: -C3 <= -0.09;
R677: -C3 <= -0.09;
R678: -C3 <= -0.09;
R679: -C3 <= -0.09;
R680: -C3 <= -0.09;
R681: -C3 <= -0.09;
R682: -C3 <= -0.09;
R683: -C3 <= -0.09;
R684: -C3 <= -0.09;
R685: -C3 <= -0.09;
R686: -C3 <= -0.09;
R687: -C3 <= -0.09;
R688: -C3 <= -0.09;
R689: -C3 <= -0.09;
R690: -C3 <= -0.09;
R691: -C3 <= -0.09;
R692: -C3 <= -0.09;
R693: -C3 <= -0.09;
R694: -C3 <= -0.09;
R695: -C3 <= -0.09;
R696: -C3 <= -0.09;
R697: -C3 <= -0.09;
R698: -C3 <= -0.09;
R699: -C3 <= -0.09;
R700: -C3 <= -0.09;
R701: -C3 <= -0.09;
R702: -C3 <= -0.09;
R703: -C3 <= -0.09;
R704: -C3 <= -0.09;
R705: -C3 <= -0.09;
R706: -C3 <= -0.09;
R707: -C3 <= -0.09;
R708: -C3 <= -0.09;
R709: -C3 <= -0.09;
R710: -C3 <= -0.09;
R711: -C3 <= -0.09;
R712: -C3 <= -0.09;
R713: -C3 <= -0.09;
R714: -C3 <= -0.09;
R715: -C3 <= -0.09;
R716: -C3 <= -0.09;
R717: -C3 <= -0.09;
R718: -C3 <= -0.09;
R719: -C3 <= -0.09;
R720: -C3 <= -0.09;
R721: -C3 <= -0.09;
R722: -C3 <= -0.09;

/* Variable bounds */
C1 >= -10000000000;
C2 >= -10000000000;
C3 >= -10000000000;
